c CNF file generated from BLIF2CNF script.
c Original BLIF file was comb/cm150a.blif
p cnf 288 610
1 -3 0
3 -1  0
-3 2 0
-2 3  0
4 -6 0
6 -4  0
-6 5 0
-5 6  0
7 -9 0
9 -7  0
-9 8 0
-8 9  0
10 -12 0
12 -10  0
-12 11 0
-11 12  0
13 -15 0
15 -13  0
-15 14 0
-14 15  0
16 -18 0
18 -16  0
-18 17 0
-17 18  0
19 -21 0
21 -19  0
-21 20 0
-20 21  0
22 -24 0
24 -22  0
-24 23 0
-23 24  0
25 -27 0
27 -25  0
-27 26 0
-26 27  0
28 -30 0
30 -28  0
-30 29 0
-29 30  0
31 -33 0
33 -31  0
-33 32 0
-32 33  0
34 -36 0
36 -34  0
-36 35 0
-35 36  0
37 -39 0
39 -37  0
-39 38 0
-38 39  0
40 -42 0
42 -40  0
-42 41 0
-41 42  0
43 -45 0
45 -43  0
-45 44 0
-44 45  0
46 -48 0
48 -46  0
-48 47 0
-47 48  0
49 -51 0
51 -49  0
-51 50 0
-50 51  0
52 -54 0
54 -52  0
-54 53 0
-53 54  0
55 -57 0
57 -55  0
-57 56 0
-56 57  0
58 -60 0
60 -58  0
-60 59 0
-59 60  0
61 -63 0
63 -61  0
-63 62 0
-62 63  0
64 -66 0
66 -64  0
-66 65 0
-65 66  0
-67 -69 0
69 67  0
-69 68 0
-68 69  0
-38 -71 0
71 38  0
-71 70 0
-70 71  0
-35 -73 0
73 35  0
-73 72 0
-72 73  0
-44 -75 0
75 44  0
-75 74 0
-74 75  0
-41 -77 0
77 41  0
-77 76 0
-76 77  0
-26 -79 0
79 26  0
-79 78 0
-78 79  0
-23 -81 0
81 23  0
-81 80 0
-80 81  0
-32 -83 0
83 32  0
-83 82 0
-82 83  0
-29 -85 0
85 29  0
-85 84 0
-84 85  0
86 -90 0
90 -86  0
-90 89 0
87 -91 0
91 -87  0
-91 89 0
88 -92 0
92 -88  0
-92 89 0
-89 90 91 92  0
93 -95 0
72 -95 0
95 -93 -72  0
-95 94 0
-94 95  0
96 -98 0
8 -98 0
98 -96 -8  0
-98 97 0
-97 98  0
99 -102 0
100 -102 0
102 -99 -100  0
-102 101 0
-101 102  0
103 -107 0
107 -103  0
-107 106 0
104 -108 0
108 -104  0
-108 106 0
105 -109 0
109 -105  0
-109 106 0
-106 107 108 109  0
17 -111 0
111 -17  0
-111 19 0
110 -112 0
112 -110  0
-112 19 0
-19 111 112  0
113 -117 0
117 -113  0
-117 116 0
114 -118 0
118 -114  0
-118 116 0
115 -119 0
119 -115  0
-119 116 0
-116 117 118 119  0
120 -123 0
121 -123 0
123 -120 -121  0
-123 122 0
-122 123  0
5 -125 0
99 -125 0
125 -5 -99  0
-125 124 0
-124 125  0
93 -128 0
126 -128 0
128 -93 -126  0
-128 127 0
-127 128  0
74 -129 0
76 -129 0
129 -74 -76  0
-129 115 0
-115 129  0
130 -134 0
134 -130  0
-134 133 0
131 -135 0
135 -131  0
-135 133 0
132 -136 0
136 -132  0
-136 133 0
-133 134 135 136  0
93 -139 0
137 -139 0
139 -93 -137  0
-139 138 0
-138 139  0
5 -142 0
140 -142 0
142 -5 -140  0
-142 141 0
-141 142  0
5 -143 0
74 -143 0
143 -5 -74  0
-143 113 0
-113 143  0
96 -145 0
120 -145 0
145 -96 -120  0
-145 144 0
-144 145  0
124 -148 0
148 -124  0
-148 147 0
146 -149 0
149 -146  0
-149 147 0
101 -150 0
150 -101  0
-150 147 0
-147 148 149 150  0
140 -152 0
126 -152 0
152 -140 -126  0
-152 151 0
-151 152  0
-153 -154 0
154 153  0
-154 110 0
-110 154  0
155 -158 0
156 -158 0
158 -155 -156  0
-158 157 0
-157 158  0
-14 -160 0
160 14  0
-160 159 0
-159 160  0
-2 -161 0
161 2  0
-161 140 0
-140 161  0
-89 -163 0
163 89  0
-163 162 0
-162 163  0
164 -168 0
168 -164  0
-168 167 0
165 -169 0
169 -165  0
-169 167 0
166 -170 0
170 -166  0
-170 167 0
-167 168 169 170  0
-167 -172 0
172 167  0
-172 171 0
-171 172  0
-59 -174 0
174 59  0
-174 173 0
-173 174  0
-116 -175 0
175 116  0
-175 96 0
-96 175  0
176 -178 0
177 -178 0
178 -176 -177  0
-178 166 0
-166 178  0
-179 -181 0
181 179  0
-181 180 0
-180 181  0
-65 -182 0
182 65  0
-182 126 0
-126 182  0
-183 -184 0
184 183  0
-184 120 0
-120 184  0
180 -185 0
11 -185 0
185 -180 -11  0
-185 164 0
-164 185  0
-106 -186 0
186 106  0
-186 176 0
-176 186  0
-5 -187 0
187 5  0
-187 93 0
-93 187  0
-188 -190 0
190 188  0
-190 189 0
-189 190  0
191 -192 0
177 -192 0
192 -191 -177  0
-192 132 0
-132 192  0
193 -197 0
197 -193  0
-197 196 0
194 -198 0
198 -194  0
-198 196 0
195 -199 0
199 -195  0
-199 196 0
-196 197 198 199  0
200 -202 0
201 -202 0
202 -200 -201  0
-202 104 0
-104 202  0
171 -204 0
14 -204 0
204 -171 -14  0
-204 203 0
-203 204  0
-205 -206 0
206 205  0
-206 201 0
-201 206  0
-207 -208 0
208 207  0
-208 191 0
-191 208  0
189 -209 0
11 -209 0
209 -189 -11  0
-209 130 0
-130 209  0
93 -210 0
100 -210 0
210 -93 -100  0
-210 146 0
-146 210  0
211 -213 0
213 -211  0
-213 179 0
157 -214 0
214 -157  0
-214 179 0
212 -215 0
215 -212  0
-215 179 0
-179 213 214 215  0
216 -218 0
159 -218 0
218 -216 -159  0
-218 217 0
-217 218  0
-147 -219 0
219 147  0
-219 200 0
-200 219  0
-50 -221 0
221 50  0
-221 220 0
-220 221  0
82 -223 0
84 -223 0
223 -82 -84  0
-223 222 0
-222 223  0
224 -227 0
227 -224  0
-227 207 0
225 -228 0
228 -225  0
-228 207 0
226 -229 0
229 -226  0
-229 207 0
-207 227 228 229  0
156 -230 0
121 -230 0
230 -156 -121  0
-230 212 0
-212 230  0
-133 -231 0
231 133  0
-231 216 0
-216 231  0
-232 -233 0
233 232  0
-233 155 0
-155 233  0
-47 -234 0
234 47  0
-234 137 0
-137 234  0
5 -236 0
82 -236 0
236 -5 -82  0
-236 235 0
-235 236  0
93 -237 0
76 -237 0
237 -93 -76  0
-237 114 0
-114 237  0
155 -238 0
8 -238 0
238 -155 -8  0
-238 211 0
-211 238  0
171 -240 0
216 -240 0
240 -171 -216  0
-240 239 0
-239 240  0
-8 -241 0
241 8  0
-241 121 0
-121 241  0
-56 -242 0
242 56  0
-242 99 0
-99 242  0
235 -244 0
244 -235  0
-244 67 0
243 -245 0
245 -243  0
-245 67 0
222 -246 0
246 -222  0
-246 67 0
-67 244 245 246  0
93 -247 0
84 -247 0
247 -93 -84  0
-247 243 0
-243 247  0
68 -248 0
8 -248 0
248 -68 -8  0
-248 224 0
-224 248  0
220 -250 0
137 -250 0
250 -220 -137  0
-250 249 0
-249 250  0
141 -251 0
251 -141  0
-251 232 0
127 -252 0
252 -127  0
-252 232 0
151 -253 0
253 -151  0
-253 232 0
-232 251 252 253  0
-11 -254 0
254 11  0
-254 177 0
-177 254  0
-53 -255 0
255 53  0
-255 100 0
-100 255  0
93 -256 0
80 -256 0
256 -93 -80  0
-256 87 0
-87 256  0
257 -259 0
259 -257  0
-259 183 0
94 -260 0
260 -94  0
-260 183 0
258 -261 0
261 -258  0
-261 183 0
-183 259 260 261  0
162 -262 0
121 -262 0
262 -162 -121  0
-262 226 0
-226 262  0
5 -264 0
220 -264 0
264 -5 -220  0
-264 263 0
-263 264  0
93 -265 0
173 -265 0
265 -93 -173  0
-265 194 0
-194 265  0
-196 -266 0
266 196  0
-266 156 0
-156 266  0
-62 -268 0
268 62  0
-268 267 0
-267 268  0
5 -269 0
78 -269 0
269 -5 -78  0
-269 86 0
-86 269  0
70 -270 0
72 -270 0
270 -70 -72  0
-270 258 0
-258 270  0
97 -271 0
271 -97  0
-271 188 0
144 -272 0
272 -144  0
-272 188 0
122 -273 0
273 -122  0
-273 188 0
-188 271 272 273  0
189 -274 0
191 -274 0
274 -189 -191  0
-274 131 0
-131 274  0
5 -275 0
267 -275 0
275 -5 -267  0
-275 193 0
-193 275  0
201 -276 0
121 -276 0
276 -201 -121  0
-276 105 0
-105 276  0
203 -277 0
277 -203  0
-277 153 0
239 -278 0
278 -239  0
-278 153 0
217 -279 0
279 -217  0
-279 153 0
-153 277 278 279  0
78 -280 0
80 -280 0
280 -78 -80  0
-280 88 0
-88 280  0
5 -281 0
70 -281 0
281 -5 -70  0
-281 257 0
-257 281  0
68 -282 0
162 -282 0
282 -68 -162  0
-282 225 0
-225 282  0
263 -283 0
283 -263  0
-283 205 0
138 -284 0
284 -138  0
-284 205 0
249 -285 0
285 -249  0
-285 205 0
-205 283 284 285  0
267 -286 0
173 -286 0
286 -267 -173  0
-286 195 0
-195 286  0
200 -287 0
8 -287 0
287 -200 -8  0
-287 103 0
-103 287  0
180 -288 0
176 -288 0
288 -180 -176  0
-288 165 0
-165 288  0
